p ocr 31 37 250
1 40
1 44
1 48
1 52
1 53
1 55
1 58
1 62
1 63
2 34
2 35
2 36
2 42
2 51
2 54
2 65
2 68
3 40
3 44
3 48
3 52
3 53
3 55
3 58
3 62
3 63
4 32
4 43
4 56
5 32
5 43
5 56
6 32
6 33
6 36
6 43
6 49
6 54
6 56
6 68
7 32
7 56
8 38
8 39
8 47
8 55
8 57
8 61
8 66
9 38
9 39
9 42
9 45
9 46
9 57
9 60
9 64
10 40
10 44
10 48
10 52
10 53
10 55
10 58
10 62
10 63
11 33
11 34
11 35
11 36
11 43
11 49
11 50
11 51
11 54
11 56
11 68
12 34
12 35
12 39
12 42
12 51
12 57
12 59
12 60
12 65
13 37
13 41
13 52
13 53
13 58
13 67
14 32
14 43
14 56
15 40
15 44
15 48
15 52
15 53
15 55
15 58
15 62
15 63
16 37
16 40
16 41
16 52
16 53
16 58
16 67
17 33
17 34
17 35
17 36
17 43
17 49
17 50
17 51
17 54
17 56
17 68
18 33
18 34
18 35
18 36
18 42
18 49
18 50
18 51
18 54
18 59
18 65
18 68
19 33
19 34
19 35
19 36
19 42
19 49
19 50
19 51
19 54
19 59
19 65
19 68
20 32
20 43
20 56
21 38
21 40
21 44
21 47
21 48
21 55
21 61
21 62
21 63
21 66
22 38
22 39
22 45
22 47
22 55
22 57
22 60
22 61
22 62
22 66
23 33
23 34
23 35
23 36
23 49
23 50
23 51
23 54
23 56
23 68
24 38
24 39
24 42
24 45
24 46
24 47
24 57
24 59
24 60
24 61
24 64
24 65
24 66
25 37
25 40
25 41
25 52
25 53
25 58
25 63
25 67
26 38
26 39
26 47
26 55
26 57
26 60
26 61
26 66
27 40
27 53
27 55
27 63
28 32
28 33
28 36
28 43
28 54
28 56
28 68
29 33
29 34
29 35
29 36
29 43
29 49
29 50
29 51
29 54
29 56
29 68
30 37
30 41
30 52
30 53
30 58
30 67
31 38
31 39
31 44
31 45
31 46
31 47
31 48
31 55
31 57
31 60
31 61
31 62
31 64
31 66